
Gurobi 7.0.2 (linux64, Matlab) logging started Sun Sep  2 08:56:11 2018


Gurobi 7.0.2 (linux64) logging started Sun Sep  2 08:56:11 2018

Optimize a model with 34600 rows, 76249 columns and 246895 nonzeros
Coefficient statistics:
  Matrix range     [8e-02, 2e+00]
  Objective range  [2e+02, 4e+07]
  Bounds range     [1e-03, 3e+02]
  RHS range        [1e+00, 1e+02]
Iteration    Objective       Primal Inf.    Dual Inf.      Time
       0    8.9989180e+07   0.000000e+00   0.000000e+00      0s

Solved in 0 iterations and 0.10 seconds
Optimal objective  8.998917957e+07
Warning: unscaled dual violation = 3.59118e-06 and residual = 3.59118e-06
